6 32 4 10
1 8 17 3 11 15 1 1 13 11 14 13 9 12 14 7 18 6 1 17 14 15 2 17 18 2 8 3 17 7 2 8 
7.63 2.99 3.49 2.83 4.97 0.17 1.52 4.3 4.87 6.36 5.51 0.17 7.44 2.44 1.4 1.15 4.72 0.23 7.96 5.9 7.29 6.49 2.24 2.11 1.64 0.68 0.41 0.52 1.51 2.05 7.76 3.72 
0.25 4.98 3.61 5.82 6.82 7.58 7.11 4.02 2.42 7.53 5.12 5.75 6.6 7.41 2.12 3.8 6.18 4.13 1.24 4.36 1.86 3.84 5.25 2 3.31 2.83 3.7 1.12 5.47 0.12 6.6 4.95 
2.93 4.82 0.98 4.65 6.87 2.05 7 4.85 4.32 2.6 3.93 3.77 6.58 2.85 4.22 6.72 3.82 0.37 7.41 5.51 4.68 6.75 7.56 4.71 1.73 2.65 7.99 5.24 3.99 5.92 3.42 3.14 
5.58 5.13 4.22 1.6 5.92 5.53 3.61 5.71 2.06 7.28 1.68 4.7 4.4 5.32 3.62 0.46 7.35 3.69 7.17 1.5 6.62 6.33 7.16 2.51 7.87 2.34 6.64 0.25 0.97 1.03 2.59 6.6 
4 4 4 4 4 4 4 4 4 4 4 4 4 4 4 4 4 4 4 4 4 4 4 4 4 4 4 4 4 4 4 4 
3.94 7.23 7.83 3.36 5.56 1.33 4.13 1.08 6.85 3.13 0.46 1.75 0.14 2.19 7.44 2.79 6.59 3.84 4.48 7.33 5.22 2.12 7.77 2.78 4.9 3.94 7.94 3.53 3.59 2.77 8 5.49 
1 1 1 1 1 1 1 1 1 1 1 1 1 1 1 1 1 1 1 1 1 1 1 1 1 1 1 1 1 1 1 1 
1 1 1 1 1 1 1 1 1 1 1 1 1 1 1 1 1 1 1 1 1 1 1 1 1 1 1 1 1 1 1 1 
1 1 1 1 1 1 1 1 1 1 1 1 1 1 1 1 1 1 1 1 1 1 1 1 1 1 1 1 1 1 1 1 
1 1 1 1 1 1 1 1 1 1 1 1 1 1 1 1 1 1 1 1 1 1 1 1 1 1 1 1 1 1 1 1 
1 1 1 1 1 1 1 1 1 1 1 1 1 1 1 1 1 1 1 1 1 1 1 1 1 1 1 1 1 1 1 1 
1 1 1 1 1 1 1 1 1 1 1 1 1 1 1 1 1 1 1 1 1 1 1 1 1 1 1 1 1 1 1 1 
0.01 0.01 0.01 0.01 0.01 0.01 0.01 0.01 0.01 0.01 0.01 0.01 0.01 0.01 0.01 0.01 0.01 0.01 0.01 0.01 0.01 0.01 0.01 0.01 0.01 0.01 0.01 0.01 0.01 0.01 0.01 0.01 
0.02 0.02 0.02 0.02 0.02 0.02 0.02 0.02 0.02 0.02 0.02 0.02 0.02 0.02 0.02 0.02 0.02 0.02 0.02 0.02 0.02 0.02 0.02 0.02 0.02 0.02 0.02 0.02 0.02 0.02 0.02 0.02 
0.03 0.03 0.03 0.03 0.03 0.03 0.03 0.03 0.03 0.03 0.03 0.03 0.03 0.03 0.03 0.03 0.03 0.03 0.03 0.03 0.03 0.03 0.03 0.03 0.03 0.03 0.03 0.03 0.03 0.03 0.03 0.03 
0.04 0.04 0.04 0.04 0.04 0.04 0.04 0.04 0.04 0.04 0.04 0.04 0.04 0.04 0.04 0.04 0.04 0.04 0.04 0.04 0.04 0.04 0.04 0.04 0.04 0.04 0.04 0.04 0.04 0.04 0.04 0.04 
0.05 0.05 0.05 0.05 0.05 0.05 0.05 0.05 0.05 0.05 0.05 0.05 0.05 0.05 0.05 0.05 0.05 0.05 0.05 0.05 0.05 0.05 0.05 0.05 0.05 0.05 0.05 0.05 0.05 0.05 0.05 0.05 
1 1 1 1 1 1 1 1 1 1 1 1 1 1 1 1 1 1 1 1 1 1 1 1 1 1 1 1 1 1 1 1 
